(set-info :Origin "This instance was generated by: BanditFuzz-- an RL fuzzer for SMT solvers" )
(set-info :Author "Joe Scott, Fed Mora, Vijay Ganesh" )
(set-info :Contact "Joe Scott, joseph.scott@uwaterloo.ca")
(set-logic QF_BV)
(declare-const bool_0 Bool)
(declare-const bool_1 Bool)
(declare-const bool_2 Bool)
(declare-const bool_3 Bool)
(declare-const bool_4 Bool)
(declare-const bv_0 (_ BitVec 32))
(declare-const bv_1 (_ BitVec 32))
(declare-const bv_2 (_ BitVec 32))
(declare-const bv_3 (_ BitVec 32))
(declare-const bv_4 (_ BitVec 32))
(assert (bvsge (bvmul (bvand bv_1 #xf2d5020c ) (bvmul #xcbf7dae3  #xf6615869 )) (bvnor (bvlshr bv_1 #xe6d99c84 ) (bvudiv #x4444b739  bv_2))))
(assert (bvsge (bvsdiv (bvshl #xe6ac8769  #x01fc10f8 ) (bvand #xeeb16837  bv_4)) (bvor (bvshl bv_0 #xc0218cda ) (bvand bv_2 bv_3))))
(assert (bvule (bvnand (bvashr bv_0 #xb51a941b ) (bvsub #x71ed774a  bv_0)) (bvmul (bvxor bv_3 bv_3) (bvmul #x37334ba1  bv_4))))
(assert (bvsle (bvudiv (bvsub bv_4 #x4a89b635 ) (bvxor #x01c80b2b  #xfc2708a3 )) (bvsmod (bvsmod bv_3 #x91f98ede ) (bvsmod #x100a58bc  bv_0))))
(assert (bvsgt (bvudiv (bvlshr #x04c8f80f  #xa700f1d0 ) (bvnor bv_3 #x7fb5f8df )) (bvnor (bvnor #x21e258d7  bv_3) (bvshl #x7f937c29  #x1f7be84f ))))
(check-sat)
(exit)
